45611
45611
42132
42132
42132
42132
42132
42132
42132
42132
42132
42132
42132
42132
42132
42132
42132
42132
42132
42132
42132
42132
42132
42132
42132
42132
42132
42132
42132
42132
42132
42132
42132
42132
42132
42132
42132
42132
42132
42132
42132
42132
42132
42132
42132
42132
42132
42132
42132
42132
